CMPL model generation - running

CMPL version: 1.11.0
Authors: Thomas Schleiff, Mike Steglich
Distributed under the GPLv3 

create model instance ...
write model instance ...
CMPL model generation - finished

Solver - running


Welcome to IBM(R) ILOG(R) CPLEX(R) Interactive Optimizer 12.7.1.0
  with Simplex, Mixed Integer & Barrier Optimizers
5725-A06 5725-A29 5724-Y48 5724-Y49 5724-Y54 5724-Y55 5655-Y21
Copyright IBM Corp. 1988, 2017.  All Rights Reserved.

Type 'help' for a list of available commands.
Type 'help' followed by a command name for more
information on commands.

CPLEX> Specified objective sense: MINIMIZE
Selected objective  name:  line[1]
Selected RHS        name:  RHS
Selected bound      name:  BOUND
Problem '/tmp/cmpl.T23374.mps' read.
Read time = 0.05 sec. (8.16 ticks)
CPLEX> CPXPARAM_Read_APIEncoding                        "UTF-8"
Tried aggregator 3 times.
MIP Presolve eliminated 19313 rows and 30844 columns.
MIP Presolve modified 340 coefficients.
Aggregator did 588 substitutions.
Reduced MIP has 2454 rows, 3161 columns, and 9247 nonzeros.
Reduced MIP has 2993 binaries, 0 generals, 0 SOSs, and 0 indicators.
Presolve time = 0.05 sec. (41.63 ticks)
Found incumbent of value 383.344551 after 0.07 sec. (53.73 ticks)
Probing fixed 4 vars, tightened 0 bounds.
Probing time = 0.01 sec. (3.99 ticks)
Tried aggregator 1 time.
MIP Presolve eliminated 0 rows and 4 columns.
MIP Presolve modified 15 coefficients.
Reduced MIP has 2454 rows, 3157 columns, and 9239 nonzeros.
Reduced MIP has 3157 binaries, 0 generals, 0 SOSs, and 0 indicators.
Presolve time = 0.01 sec. (7.87 ticks)
Probing time = 0.01 sec. (2.66 ticks)
Clique table members: 5131.
MIP emphasis: balance optimality and feasibility.
MIP search method: dynamic search.
Parallel mode: none, using 1 thread.
Root relaxation solution time = 0.00 sec. (4.19 ticks)

        Nodes                                         Cuts/
   Node  Left     Objective  IInf  Best Integer    Best Bound    ItCnt     Gap

*     0+    0                          383.3446      -52.3489           113.66%
      0     0        8.8775    27      383.3446        8.8775       59   97.68%
*     0+    0                           66.2526        8.8775            86.60%
*     0+    0                            9.6489        8.8775             7.99%
      0     0        cutoff              9.6489                     59    0.00%
Elapsed time = 0.12 sec. (85.88 ticks, tree = 0.01 MB, solutions = 3)

Root node processing (before b&c):
  Real time             =    0.12 sec. (87.36 ticks)
Sequential b&c:
  Real time             =    0.00 sec. (0.00 ticks)
                          ------------
Total (root+branch&cut) =    0.12 sec. (87.36 ticks)

Solution pool: 3 solutions saved.

MIP - Integer optimal solution:  Objective =  9.6489270000e+00
Solution time =    0.12 sec.  Iterations = 59  Nodes = 0
Deterministic time = 87.46 ticks  (703.96 ticks/sec)

CPLEX> Incumbent solution written to file '/tmp/cmpl.T23374.gsol'.
CPLEX> 
CMPL: Time used for model generation: 1 seconds
CMPL: Time used for solving the model: 1 seconds


Solution written to ASCII file: results/output_generated_conf_0/2016-09-05-4/fair-nonlinear.sol

Solver - finished
